
        $ From http://www.csplib.org/Problems/prob009/data/helmut.pdf
        $ Problem number 162
        $ Sequence length : 25
        language ESSENCE' 1.0
        letting sizemaster be 536
        letting sizes be sequence(1,8,21,30,31,32,33,41,44,46,49,55,57,61,84,91,113,134,137,139,150,155,176,205,247)
        